c A SAT instance generated from a 3-CNF formula that had 20 clauses and 20 variables
p cnf 20 20
17 19 3 0
-19 -1 -18 0
-14 1 -18 0
9 20 7 0
-5 -18 1 0
-1 -17 20 0
-2 -20 -18 0
4 -5 -11 0
3 -20 -4 0
-13 3 -9 0
-9 8 20 0
17 -1 7 0
20 16 -4 0
-9 3 6 0
-18 -2 10 0
7 -14 1 0
-18 17 -16 0
-7 -2 -6 0
-9 6 -20 0
-4 15 -10 0
%
0

42 49 77 37 14 69 13 80 72 18 63 98 39 39 88 62 91 73 27 20
